(set-logic QF_S)
(declare-fun I () String)
(declare-fun H () String)
(declare-fun K () String)
(declare-fun G () String)
(declare-fun J () String)
(declare-fun L () String)
(assert (= (str.++  G G G G G "aa" G G G G G "ab" I "aaab" I "b" J J "b" L)  (str.++  "a" G "aaaaaaaaaaaaa" H H "a" H "aaa" H H H "a" H "aaa" H "ba" J "aaa" J "aab" J K J K "b" K K "baa") ))
(check-sat)
(get-model)
